<number of tasks>
50

<cycle time>
1000

<order strength>
0.202


<task times>
1 130
2 37
3 208
4 597
5 217
6 202
7 160
8 115
9 180
10 51
11 64
12 20
13 28
14 62
15 134
16 168
17 292
18 317
19 496
20 136
21 428
22 112
23 496
24 286
25 246
26 605
27 352
28 503
29 476
30 587
31 264
32 90
33 47
34 46
35 152
36 269
37 104
38 164
39 229
40 462
41 274
42 266
43 498
44 280
45 148
46 45
47 43
48 259
49 478
50 193

<precedence relations>
1,7
2,8
3,6
3,9
4,12
4,13
4,22
5,10
5,11
6,14
7,15
8,15
9,18
11,16
11,17
14,19
15,20
15,21
16,24
17,22
18,23
18,24
19,25
20,26
21,27
22,28
22,29
23,31
24,30
25,38
26,32
27,34
28,35
29,36
30,33
30,37
32,42
33,39
34,42
35,40
36,42
37,41
38,43
39,45
40,46
41,44
42,48
43,47
43,49
43,50

<end>
